10	5
0	2	1	2
1	2	7	3
2	1	6
3	1	9
4	2	5	8
5	2	3	10
6	0
7	1	8
8	2	10	9
9	1	11
10	1	11
11	0
0	0	0	0	0	0	0
1	2	1	0	2	5	0
2	7	0	5	0	0	2
3	1	0	2	4	4	4
4	3	5	4	3	0	0
5	10	4	0	2	5	0
6	3	3	0	0	5	0
7	3	0	4	3	2	3
8	7	0	0	0	0	5
9	3	0	0	0	3	0
10	6	2	0	0	0	5
11	0	0	0	0	0	0
5	5	5	5	5
